0 2168
1 2070
2 1924
3 1924
4 1883
5 1828
6 1789
7 1789
8 1766
9 1603
10 1603
11 1603
12 1603
13 1603
14 1574
15 1574
16 1574
17 1557
18 1557
19 1557
20 1557
21 1537
22 1537
23 1537
24 1537
25 1537
26 1537
27 1537
28 1537
29 1537
30 1537
31 1537
32 1537
33 1537
34 1537
35 1537
36 1537
37 1537
38 1537
39 1532
40 1532
41 1532
42 1432
43 1424
44 1424
45 1424
46 1424
47 1424
48 1424
49 1424
50 1424
51 1421
52 1421
53 1421
54 1419
55 1419
56 1416
57 1416
58 1416
59 1416
60 1416
61 1415
62 1415
63 1415
64 1415
65 1415
66 1415
67 1415
68 1415
69 1379
70 1379
71 1379
72 1379
73 1347
74 1347
75 1347
76 1347
77 1347
78 1347
79 1347
80 1344
81 1331
82 1331
83 1331
84 1328
85 1328
86 1328
87 1328
88 1328
89 1320
90 1320
91 1320
92 1320
93 1320
94 1320
95 1320
96 1320
97 1320
98 1320
99 1320
100 1320
101 1320
102 1320
103 1320
104 1320
105 1320
106 1284
107 1284
108 1284
109 1284
110 1284
111 1284
112 1284
113 1275
114 1275
115 1275
116 1275
117 1275
118 1212
119 1212
120 1212
121 1212
122 1212
123 1189
124 1189
125 1189
126 1189
127 1189
128 1189
129 1189
130 1189
131 1189
132 1189
133 1189
134 1189
135 1189
136 1183
137 1183
138 1183
139 1183
140 1183
141 1183
142 1183
143 1183
144 1183
145 1183
146 1183
147 1183
148 1183
149 1183
150 1169
151 1169
152 1169
153 1169
154 1169
155 1169
156 1169
157 1169
158 1169
159 1169
160 1169
161 1169
162 1169
163 1169
164 1169
165 1169
166 1165
167 1165
168 1165
169 1165
170 1165
171 1165
172 1165
173 1165
174 1165
175 1165
176 1165
177 1165
178 1165
179 1145
180 1145
181 1145
182 1145
183 1145
184 1145
185 1145
186 1145
187 1145
188 1145
189 1145
190 1145
191 1145
192 1125
193 1125
194 1125
195 1125
196 1125
197 1125
198 1125
199 1125
200 1117
201 1117
202 1117
203 1117
204 1117
205 1117
206 1117
207 1117
208 1117
209 1117
210 1117
211 1117
212 1117
213 1117
214 1117
215 1117
216 1117
217 1117
218 1117
219 1117
220 1117
221 1117
222 1117
223 1117
224 1108
225 1108
226 1108
227 1108
228 1108
229 1108
230 1108
231 1108
232 1057
233 1057
234 1057
235 1057
236 1057
237 1057
238 1057
239 1057
240 1057
241 1057
242 1057
243 1057
244 1057
245 1057
246 1057
247 1057
248 1057
249 1057
250 1057
251 1057
252 1057
253 1057
254 1057
255 1057
256 1057
257 1057
258 1057
259 1057
260 1057
261 1057
262 1057
263 1057
264 1057
265 1057
266 1057
267 1057
268 1057
269 1057
270 1057
271 1057
272 1057
273 1057
274 1057
275 1057
276 1057
277 1057
278 1057
279 1057
280 1057
281 1057
282 1057
283 1057
284 1057
285 1057
286 1057
287 1057
288 1057
289 1057
290 1057
291 1057
292 1057
293 1057
294 1057
295 1052
296 1052
297 1052
298 1052
299 1052
300 1052
301 1052
302 1052
303 1052
304 1029
305 1029
306 1029
307 1029
308 1029
309 1029
310 1029
311 1029
312 1029
313 1029
314 1029
315 1029
316 1029
317 1029
318 1029
319 1029
320 1029
321 1029
322 1029
323 1029
324 1028
325 1028
326 1028
327 1028
328 1028
329 1028
330 1028
331 1028
332 1028
333 1028
334 1028
335 1028
336 1028
337 1028
338 1028
339 1028
340 1028
341 1028
342 1028
343 1028
344 1028
345 1028
346 1028
347 1028
348 1028
349 1028
350 1028
351 1028
352 1028
353 1028
354 1028
355 1028
356 1028
357 1028
358 1018
359 1018
360 1018
361 1018
362 1018
363 1018
364 1018
365 1018
366 1018
367 1018
368 1018
369 1018
370 1018
371 1018
372 1018
373 1018
374 1018
375 1018
376 1018
377 1018
378 1018
379 1018
380 1018
381 1018
382 1018
383 1018
384 1011
385 1011
386 1011
387 1011
388 1011
389 1011
390 1003
391 1003
392 1003
393 1003
394 1003
395 1003
396 1003
397 1003
398 1003
399 1003
400 1003
401 1003
402 1003
403 1003
404 993
405 993
406 993
407 993
408 993
409 993
410 993
411 993
412 993
413 993
414 993
415 993
416 993
417 993
418 993
419 993
420 993
421 993
422 993
423 993
424 993
425 993
426 993
427 993
428 993
429 993
430 993
431 993
432 993
433 993
434 993
435 993
436 993
437 993
438 993
439 993
440 993
441 993
442 993
443 993
444 993
445 993
446 993
447 993
448 993
449 993
450 993
451 993
452 993
453 993
454 993
455 993
456 993
457 993
458 993
459 993
460 993
461 993
462 993
463 993
464 993
465 993
466 993
467 993
468 993
469 993
470 993
471 993
472 993
473 993
474 993
475 993
476 993
477 992
478 992
479 992
480 992
481 992
482 992
483 992
484 992
485 992
486 992
487 992
488 992
489 986
490 986
491 986
492 986
493 986
494 986
495 986
496 986
497 986
498 986
499 986
500 980
501 980
502 980
503 980
504 980
505 980
506 980
507 980
508 980
509 980
510 980
511 980
512 980
513 980
514 980
515 980
516 980
517 980
518 980
519 980
520 980
521 980
522 980
523 980
524 980
525 977
526 977
527 977
528 977
529 977
530 977
531 977
532 977
533 977
534 977
535 977
536 977
537 977
538 977
539 977
540 977
541 977
542 977
543 977
544 976
545 976
546 976
547 976
548 976
549 976
550 976
551 976
552 976
553 976
554 976
555 976
556 976
557 976
558 976
559 976
560 976
561 976
562 976
563 976
564 976
565 976
566 976
567 976
568 976
569 976
570 972
571 972
572 972
573 972
574 972
575 972
576 972
577 972
578 972
579 972
580 972
581 972
582 972
583 972
584 972
585 972
586 972
587 972
588 972
589 972
590 972
591 972
592 972
593 972
594 972
595 972
596 972
597 972
598 972
599 972
600 972
601 972
602 972
603 972
604 972
605 972
606 972
607 972
608 972
609 972
610 972
611 971
612 971
613 971
614 971
615 971
616 971
617 971
618 971
619 971
620 971
621 971
622 964
623 964
624 964
625 964
626 964
627 964
628 964
629 964
630 964
631 964
632 964
633 964
634 964
635 964
636 964
637 964
638 964
639 964
640 964
641 964
642 964
643 964
644 964
645 964
646 964
647 964
648 964
649 964
650 964
651 964
652 964
653 964
654 964
655 964
656 964
657 964
658 964
659 964
660 964
661 964
662 964
663 964
664 964
665 964
666 964
667 964
668 964
669 964
670 964
671 964
672 964
673 964
674 964
675 964
676 964
677 964
678 964
679 964
680 964
681 964
682 964
683 964
684 964
685 964
686 964
687 964
688 964
689 964
690 964
691 964
692 964
693 964
694 964
695 964
696 964
697 964
698 964
699 964
700 964
701 964
702 964
703 964
704 964
705 964
706 964
707 964
708 964
709 964
710 964
711 964
712 964
713 964
714 964
715 964
716 964
717 964
718 964
719 964
720 964
721 964
722 964
723 964
724 964
725 964
726 964
727 964
728 964
729 964
730 964
731 964
732 964
733 964
734 964
735 964
736 964
737 964
738 964
739 964
740 964
741 964
742 964
743 964
744 964
745 964
746 964
747 964
748 964
749 964
750 964
751 964
752 964
753 964
754 964
755 964
756 964
757 964
758 964
759 964
760 964
761 964
762 964
763 964
764 964
765 964
766 964
767 964
768 964
769 964
770 964
771 964
772 964
773 964
774 964
775 964
776 964
777 964
778 964
779 964
780 964
781 963
782 963
783 963
784 963
785 963
786 963
787 963
788 962
789 962
790 962
791 962
792 962
793 962
794 962
795 962
796 962
797 962
798 962
799 962
800 962
801 962
802 962
803 962
804 962
805 962
806 962
807 962
808 962
809 962
810 962
811 962
812 962
813 962
814 962
815 962
816 962
817 962
818 962
819 962
820 962
821 962
822 962
823 962
824 962
825 962
826 962
827 962
828 962
829 962
830 962
831 962
832 962
833 962
834 962
835 962
836 962
837 962
838 962
839 962
840 962
841 962
842 962
843 962
844 962
845 962
846 962
847 962
848 962
849 962
850 962
851 962
852 962
853 962
854 962
855 962
856 962
857 962
858 962
859 962
860 962
861 962
862 962
863 962
864 962
865 962
866 962
867 962
868 962
869 962
870 962
871 962
872 962
873 962
874 962
875 962
876 962
877 962
878 962
879 962
880 962
881 962
882 962
883 962
884 962
885 962
886 962
887 962
888 962
889 962
890 962
891 962
892 962
893 962
894 962
895 962
896 962
897 962
898 962
899 962
900 962
901 962
902 962
903 962
904 962
905 962
906 962
907 962
908 962
909 962
910 962
911 962
912 962
913 962
914 962
915 962
916 962
917 962
918 962
919 962
920 962
921 962
922 962
923 962
924 962
925 962
926 962
927 962
928 962
929 962
930 962
931 962
932 962
933 962
934 962
935 962
936 962
937 962
938 962
939 962
940 962
941 962
942 962
943 962
944 962
945 962
946 962
947 962
948 962
949 962
950 962
951 962
952 962
953 962
954 962
955 962
956 962
957 962
958 962
959 962
960 962
961 962
962 962
963 962
964 962
965 962
966 962
967 962
968 962
969 962
970 962
971 962
972 962
973 962
974 962
975 962
976 962
977 962
978 962
979 962
980 962
981 962
982 962
983 962
984 962
985 962
986 962
987 962
988 962
989 962
990 962
991 962
992 962
993 962
994 962
995 962
996 962
997 962
998 962
999 962
Best: [[17,19,9,5,12,29,24],
       [31,8,14,22,2,13],
       [28,30,16,10,23,15,25],
       [7,4,3,18,20,32,27],
       [21,6,26,11]], fitness: 962
